
Gurobi 8.0.1 (linux64, Python) logging started Fri Aug  3 16:48:13 2018


Gurobi 8.0.1 (linux64, Python) logging started Mon Aug  6 17:31:35 2018


Gurobi 7.5.2 (win64, Python) logging started 08/12/18 00:06:53

Academic license - for non-commercial use only

Gurobi 7.5.2 (win64, Python) logging started 08/12/18 00:14:39

Academic license - for non-commercial use only

Gurobi 7.5.2 (win64, Python) logging started 08/12/18 00:16:05

Academic license - for non-commercial use only

Gurobi 7.5.2 (win64, Python) logging started 08/12/18 00:17:12

Academic license - for non-commercial use only

Gurobi 7.5.2 (win64, Python) logging started 08/12/18 00:17:40

Academic license - for non-commercial use only

Gurobi 7.5.2 (win64, Python) logging started 08/12/18 00:19:39

Academic license - for non-commercial use only

Gurobi 7.5.2 (win64, Python) logging started 08/12/18 00:20:04

Academic license - for non-commercial use only
Optimize a model with 20000 rows, 10011 columns and 237130 nonzeros
Coefficient statistics:
  Matrix range     [1e+00, 1e+02]
  Objective range  [0e+00, 0e+00]
  Bounds range     [0e+00, 0e+00]
  RHS range        [6e+00, 2e+04]

Concurrent LP optimizer: dual simplex and barrier
Showing barrier log only...

Presolve removed 20000 rows and 10011 columns
Presolve time: 0.06s
Presolve: All rows and columns removed
Iteration    Objective       Primal Inf.    Dual Inf.      Time
       0    0.0000000e+00   0.000000e+00   1.200000e-05      0s
Extra 11 simplex iterations after uncrush
      11    0.0000000e+00   0.000000e+00   0.000000e+00      0s

Solved with dual simplex
Solved in 11 iterations and 0.15 seconds
Optimal objective  0.000000000e+00

Gurobi 7.5.2 (win64, Python) logging started 08/12/18 00:21:44

Academic license - for non-commercial use only
Optimize a model with 20000 rows, 10011 columns and 237130 nonzeros
Coefficient statistics:
  Matrix range     [1e+00, 1e+02]
  Objective range  [0e+00, 0e+00]
  Bounds range     [0e+00, 0e+00]
  RHS range        [6e+00, 2e+04]

Concurrent LP optimizer: dual simplex and barrier
Showing barrier log only...

Presolve removed 20000 rows and 10011 columns
Presolve time: 0.09s
Presolve: All rows and columns removed
Iteration    Objective       Primal Inf.    Dual Inf.      Time
       0    0.0000000e+00   0.000000e+00   1.200000e-05      0s
Extra 11 simplex iterations after uncrush
      11    0.0000000e+00   0.000000e+00   0.000000e+00      0s

Solved with dual simplex
Solved in 11 iterations and 0.20 seconds
Optimal objective  0.000000000e+00
Optimize a model with 20000 rows, 10011 columns and 237130 nonzeros
Coefficient statistics:
  Matrix range     [1e+00, 1e+02]
  Objective range  [0e+00, 0e+00]
  Bounds range     [0e+00, 0e+00]
  RHS range        [6e+00, 2e+04]

Concurrent LP optimizer: dual simplex and barrier
Showing barrier log only...

Presolve removed 20000 rows and 10011 columns
Presolve time: 0.08s
Presolve: All rows and columns removed
Iteration    Objective       Primal Inf.    Dual Inf.      Time
       0    0.0000000e+00   0.000000e+00   1.200000e-05      0s
Extra 11 simplex iterations after uncrush
      11    0.0000000e+00   0.000000e+00   0.000000e+00      0s

Solved with dual simplex
Solved in 11 iterations and 0.19 seconds
Optimal objective  0.000000000e+00
Optimize a model with 20000 rows, 10011 columns and 237130 nonzeros
Coefficient statistics:
  Matrix range     [1e+00, 1e+02]
  Objective range  [0e+00, 0e+00]
  Bounds range     [0e+00, 0e+00]
  RHS range        [6e+00, 2e+04]

Concurrent LP optimizer: dual simplex and barrier
Showing barrier log only...

Presolve removed 20000 rows and 10011 columns
Presolve time: 0.09s
Presolve: All rows and columns removed
Iteration    Objective       Primal Inf.    Dual Inf.      Time
       0    0.0000000e+00   0.000000e+00   1.200000e-05      0s
Extra 11 simplex iterations after uncrush
      11    0.0000000e+00   0.000000e+00   0.000000e+00      0s

Solved with dual simplex
Solved in 11 iterations and 0.20 seconds
Optimal objective  0.000000000e+00
Optimize a model with 20000 rows, 10011 columns and 237130 nonzeros
Coefficient statistics:
  Matrix range     [1e+00, 1e+02]
  Objective range  [0e+00, 0e+00]
  Bounds range     [0e+00, 0e+00]
  RHS range        [6e+00, 2e+04]

Concurrent LP optimizer: dual simplex and barrier
Showing barrier log only...

Presolve removed 20000 rows and 10011 columns
Presolve time: 0.09s
Presolve: All rows and columns removed
Iteration    Objective       Primal Inf.    Dual Inf.      Time
       0    0.0000000e+00   0.000000e+00   1.200000e-05      0s
Extra 11 simplex iterations after uncrush
      11    0.0000000e+00   0.000000e+00   0.000000e+00      0s

Solved with dual simplex
Solved in 11 iterations and 0.20 seconds
Optimal objective  0.000000000e+00
Optimize a model with 20000 rows, 10011 columns and 237130 nonzeros
Coefficient statistics:
  Matrix range     [1e+00, 1e+02]
  Objective range  [0e+00, 0e+00]
  Bounds range     [0e+00, 0e+00]
  RHS range        [6e+00, 2e+04]

Concurrent LP optimizer: dual simplex and barrier
Showing barrier log only...

Presolve removed 20000 rows and 10011 columns
Presolve time: 0.08s
Presolve: All rows and columns removed
Iteration    Objective       Primal Inf.    Dual Inf.      Time
       0    0.0000000e+00   0.000000e+00   1.200000e-05      0s
Extra 11 simplex iterations after uncrush
      11    0.0000000e+00   0.000000e+00   0.000000e+00      0s

Solved with dual simplex
Solved in 11 iterations and 0.20 seconds
Optimal objective  0.000000000e+00
Optimize a model with 20000 rows, 10011 columns and 237130 nonzeros
Coefficient statistics:
  Matrix range     [1e+00, 1e+02]
  Objective range  [0e+00, 0e+00]
  Bounds range     [0e+00, 0e+00]
  RHS range        [6e+00, 2e+04]

Concurrent LP optimizer: dual simplex and barrier
Showing barrier log only...

Presolve removed 20000 rows and 10011 columns
Presolve time: 0.07s
Presolve: All rows and columns removed
Iteration    Objective       Primal Inf.    Dual Inf.      Time
       0    0.0000000e+00   0.000000e+00   1.200000e-05      0s
Extra 11 simplex iterations after uncrush
      11    0.0000000e+00   0.000000e+00   0.000000e+00      0s

Solved with dual simplex
Solved in 11 iterations and 0.18 seconds
Optimal objective  0.000000000e+00
Optimize a model with 20000 rows, 10011 columns and 237130 nonzeros
Coefficient statistics:
  Matrix range     [1e+00, 1e+02]
  Objective range  [0e+00, 0e+00]
  Bounds range     [0e+00, 0e+00]
  RHS range        [6e+00, 2e+04]

Concurrent LP optimizer: dual simplex and barrier
Showing barrier log only...

Presolve removed 20000 rows and 10011 columns
Presolve time: 0.08s
Presolve: All rows and columns removed
Iteration    Objective       Primal Inf.    Dual Inf.      Time
       0    0.0000000e+00   0.000000e+00   1.200000e-05      0s
Extra 11 simplex iterations after uncrush
      11    0.0000000e+00   0.000000e+00   0.000000e+00      0s

Solved with dual simplex
Solved in 11 iterations and 0.21 seconds
Optimal objective  0.000000000e+00
Optimize a model with 20000 rows, 10011 columns and 237130 nonzeros
Coefficient statistics:
  Matrix range     [1e+00, 1e+02]
  Objective range  [0e+00, 0e+00]
  Bounds range     [0e+00, 0e+00]
  RHS range        [6e+00, 2e+04]

Concurrent LP optimizer: dual simplex and barrier
Showing barrier log only...

Presolve removed 20000 rows and 10011 columns
Presolve time: 0.08s
Presolve: All rows and columns removed
Iteration    Objective       Primal Inf.    Dual Inf.      Time
       0    0.0000000e+00   0.000000e+00   1.200000e-05      0s
Extra 11 simplex iterations after uncrush
      11    0.0000000e+00   0.000000e+00   0.000000e+00      0s

Solved with dual simplex
Solved in 11 iterations and 0.20 seconds
Optimal objective  0.000000000e+00
Optimize a model with 20000 rows, 10011 columns and 237130 nonzeros
Coefficient statistics:
  Matrix range     [1e+00, 1e+02]
  Objective range  [0e+00, 0e+00]
  Bounds range     [0e+00, 0e+00]
  RHS range        [6e+00, 2e+04]

Concurrent LP optimizer: dual simplex and barrier
Showing barrier log only...

Presolve removed 20000 rows and 10011 columns
Presolve time: 0.08s
Presolve: All rows and columns removed
Iteration    Objective       Primal Inf.    Dual Inf.      Time
       0    0.0000000e+00   0.000000e+00   1.200000e-05      0s
Extra 11 simplex iterations after uncrush
      11    0.0000000e+00   0.000000e+00   0.000000e+00      0s

Solved with dual simplex
Solved in 11 iterations and 0.19 seconds
Optimal objective  0.000000000e+00
Optimize a model with 20000 rows, 10011 columns and 237130 nonzeros
Coefficient statistics:
  Matrix range     [1e+00, 1e+02]
  Objective range  [1e+00, 1e+00]
  Bounds range     [0e+00, 0e+00]
  RHS range        [6e+00, 2e+04]

Concurrent LP optimizer: dual simplex and barrier
Showing barrier log only...

Presolve time: 0.21s
Presolved: 20000 rows, 10011 columns, 237130 nonzeros

Ordering time: 0.01s

Barrier statistics:
 Dense cols : 11
 Free vars  : 11
 AA' NZ     : 2.271e+05
 Factor NZ  : 2.472e+05 (roughly 14 MBytes of memory)
 Factor Ops : 3.062e+06 (less than 1 second per iteration)
 Threads    : 1

                  Objective                Residual
Iter       Primal          Dual         Primal    Dual     Compl     Time
   0   6.56697906e+08  0.00000000e+00  0.00e+00 0.00e+00  4.56e+04     0s
   1   1.76679640e+08  1.07705238e+00  0.00e+00 8.21e-12  5.89e+03     0s

Barrier performed 1 iterations in 0.43 seconds
Barrier solve interrupted - model solved by another algorithm


Solved with dual simplex
Solved in 45 iterations and 0.45 seconds
Optimal objective  1.000000000e+03

Gurobi 7.5.2 (win64, Python) logging started 08/12/18 00:47:47

Academic license - for non-commercial use only

Gurobi 7.5.2 (win64, Python) logging started 08/12/18 00:48:45

Academic license - for non-commercial use only

Gurobi 7.5.2 (win64, Python) logging started 08/12/18 00:49:44

Academic license - for non-commercial use only

Gurobi 7.5.2 (win64, Python) logging started 08/12/18 00:50:45

Academic license - for non-commercial use only

Gurobi 7.5.2 (win64, Python) logging started 08/12/18 00:51:43

Academic license - for non-commercial use only
Optimize a model with 20000 rows, 10011 columns and 237130 nonzeros
Coefficient statistics:
  Matrix range     [1e+00, 1e+02]
  Objective range  [1e+00, 1e+00]
  Bounds range     [0e+00, 0e+00]
  RHS range        [6e+00, 2e+04]

Concurrent LP optimizer: dual simplex and barrier
Showing barrier log only...

Presolve time: 0.39s
Presolved: 20000 rows, 10011 columns, 237130 nonzeros

Ordering time: 0.01s

Barrier statistics:
 Dense cols : 11
 Free vars  : 11
 AA' NZ     : 2.271e+05
 Factor NZ  : 2.472e+05 (roughly 14 MBytes of memory)
 Factor Ops : 3.062e+06 (less than 1 second per iteration)
 Threads    : 1

                  Objective                Residual
Iter       Primal          Dual         Primal    Dual     Compl     Time
   0   6.56697906e+08  0.00000000e+00  0.00e+00 0.00e+00  4.56e+04     1s

Barrier performed 0 iterations in 0.58 seconds
Barrier solve interrupted - model solved by another algorithm


Solved with dual simplex
Solved in 45 iterations and 0.61 seconds
Optimal objective  1.000000000e+03

Gurobi 7.5.2 (win64, Python) logging started 08/12/18 00:54:37

Academic license - for non-commercial use only

Gurobi 7.5.2 (win64, Python) logging started 08/12/18 00:56:27

Academic license - for non-commercial use only
Optimize a model with 30000 rows, 10012 columns and 257130 nonzeros
Coefficient statistics:
  Matrix range     [1e+00, 1e+02]
  Objective range  [1e+00, 1e+00]
  Bounds range     [0e+00, 0e+00]
  RHS range        [6e+00, 2e+04]

Concurrent LP optimizer: dual simplex and barrier
Showing barrier log only...

Presolve time: 0.06s

Solved with dual simplex
Solved in 0 iterations and 0.08 seconds
Infeasible or unbounded model

Gurobi 7.5.2 (win64, Python) logging started 08/12/18 01:15:39

Academic license - for non-commercial use only
Optimize a model with 20000 rows, 10011 columns and 237130 nonzeros
Coefficient statistics:
  Matrix range     [1e+00, 1e+02]
  Objective range  [1e+00, 1e+00]
  Bounds range     [0e+00, 0e+00]
  RHS range        [6e+00, 2e+04]

Concurrent LP optimizer: dual simplex and barrier
Showing barrier log only...

Presolve time: 0.17s
Presolved: 20000 rows, 10011 columns, 237130 nonzeros

Ordering time: 0.02s

Barrier statistics:
 Dense cols : 11
 Free vars  : 11
 AA' NZ     : 2.271e+05
 Factor NZ  : 2.472e+05 (roughly 14 MBytes of memory)
 Factor Ops : 3.062e+06 (less than 1 second per iteration)
 Threads    : 1

                  Objective                Residual
Iter       Primal          Dual         Primal    Dual     Compl     Time
   0   6.56697906e+08  0.00000000e+00  0.00e+00 0.00e+00  4.56e+04     0s
   1   1.76679640e+08  1.07705238e+00  0.00e+00 8.21e-12  5.89e+03     0s

Barrier performed 1 iterations in 0.37 seconds
Barrier solve interrupted - model solved by another algorithm


Solved with dual simplex
Solved in 45 iterations and 0.37 seconds
Optimal objective  1.000000000e+03

Gurobi 7.5.2 (win64, Python) logging started 08/12/18 01:24:00

Academic license - for non-commercial use only
Optimize a model with 30000 rows, 10012 columns and 257130 nonzeros
Coefficient statistics:
  Matrix range     [1e+00, 1e+02]
  Objective range  [1e+00, 1e+00]
  Bounds range     [0e+00, 0e+00]
  RHS range        [6e+00, 2e+04]

Concurrent LP optimizer: dual simplex and barrier
Showing barrier log only...

Presolve removed 6000 rows and 6000 columns
Presolve time: 0.48s

Solved with dual simplex
Solved in 28 iterations and 0.48 seconds
Optimal objective -5.000000000e+01

Gurobi 7.5.2 (win64, Python) logging started 08/12/18 01:32:40

Academic license - for non-commercial use only
Optimize a model with 30000 rows, 10012 columns and 257130 nonzeros
Coefficient statistics:
  Matrix range     [1e+00, 1e+02]
  Objective range  [1e+00, 1e+00]
  Bounds range     [0e+00, 0e+00]
  RHS range        [6e+00, 2e+04]

Concurrent LP optimizer: dual simplex and barrier
Showing barrier log only...

Presolve removed 7000 rows and 7000 columns
Presolve time: 0.84s

Solved with dual simplex
Solved in 28 iterations and 0.84 seconds
Optimal objective -5.000000000e+01
